language ESSENCE' 1.0
$ minion Nodes: 5
$ minion TotalTime: 0.000551
$ Savile Row TotalTime: 0.222
letting fs_SetExplicit_SetExplicit_Matrix1D_SetExplicit_SetOccurrence be [[[[[false, true, true, true;int(3..6)], 
[true, false, true, true;int(3..6)];int(1..2)], 
[[false, true, true, true;int(3..6)], 
[true, false, true, true;int(3..6)];int(1..2)];int(1..2)];int(1..1)];int(1..1)]
